(set-logic QF_UF)
(declare-fun G118 () Bool)
(declare-fun G120 () Bool)
(declare-fun G123 () Bool)
(declare-fun G124 () Bool)
(declare-fun G126 () Bool)
(declare-fun G127 () Bool)
(declare-fun G129 () Bool)
(declare-fun G130 () Bool)
(declare-fun G132 () Bool)
(declare-fun G135 () Bool)
(declare-fun G136 () Bool)
(declare-fun G138 () Bool)
(declare-fun G139 () Bool)
(declare-fun G141 () Bool)
(declare-fun G142 () Bool)
(declare-fun G169 () Bool)
(declare-fun G179 () Bool)
(declare-fun G180 () Bool)
(declare-fun G181 () Bool)
(declare-fun G184 () Bool)
(declare-fun G186 () Bool)
(declare-fun G192 () Bool)
(declare-fun G452 () Bool)
(declare-fun G195 () Bool)
(declare-fun G196 () Bool)
(declare-fun G483 () Bool)
(declare-fun G199 () Bool)
(declare-fun G201 () Bool)
(declare-fun G202 () Bool)
(declare-fun G214 () Bool)
(declare-fun G203 () Bool)
(declare-fun G204 () Bool)
(declare-fun G559 () Bool)
(declare-fun G211 () Bool)
(declare-fun G212 () Bool)
(declare-fun G213 () Bool)
(declare-fun G215 () Bool)
(declare-fun G241 () Bool)
(declare-fun G242 () Bool)
(declare-fun G243 () Bool)
(declare-fun G244 () Bool)
(declare-fun G246 () Bool)
(declare-fun G661 () Bool)
(declare-fun G250 () Bool)
(declare-fun G254 () Bool)
(declare-fun G860 () Bool)
(declare-fun G256 () Bool)
(declare-fun G255 () Bool)
(declare-fun G262 () Bool)
(declare-fun G263 () Bool)
(declare-fun G264 () Bool)
(declare-fun G265 () Bool)
(declare-fun G266 () Bool)
(declare-fun G267 () Bool)
(declare-fun G270 () Bool)
(declare-fun G101 () Bool)
(declare-fun G104 () Bool)
(declare-fun G107 () Bool)
(declare-fun G274 () Bool)
(declare-fun G113 () Bool)
(declare-fun G116 () Bool)
(declare-fun G119 () Bool)
(declare-fun G278 () Bool)
(declare-fun G125 () Bool)
(declare-fun G128 () Bool)
(declare-fun G131 () Bool)
(declare-fun G543 () Bool)
(declare-fun G137 () Bool)
(declare-fun G567 () Bool)
(declare-fun G651 () Bool)
(declare-fun G140 () Bool)
(declare-fun G210 () Bool)
(declare-fun G868 () Bool)
(declare-fun G1083 () Bool)
(declare-fun G1341 () Bool)
(declare-fun G1348 () Bool)
(declare-fun G1384 () Bool)
(declare-fun G1956 () Bool)
(declare-fun G1961 () Bool)
(declare-fun G1966 () Bool)
(declare-fun G1971 () Bool)
(declare-fun G1976 () Bool)
(declare-fun G1981 () Bool)
(declare-fun G1986 () Bool)
(declare-fun G1991 () Bool)
(declare-fun G1996 () Bool)
(declare-fun G2066 () Bool)
(declare-fun G2067 () Bool)
(declare-fun G2072 () Bool)
(declare-fun G2078 () Bool)
(declare-fun G2084 () Bool)
(declare-fun G2090 () Bool)
(declare-fun G2096 () Bool)
(declare-fun G2100 () Bool)
(declare-fun G2104 () Bool)
(declare-fun G2105 () Bool)
(declare-fun G2106 () Bool)
(declare-fun G2427 () Bool)
(declare-fun G2430 () Bool)
(declare-fun G2435 () Bool)
(declare-fun G2438 () Bool)
(declare-fun G2443 () Bool)
(declare-fun G2446 () Bool)
(declare-fun G2451 () Bool)
(declare-fun G2454 () Bool)
(declare-fun G2474 () Bool)
(declare-fun G2678 () Bool)
(declare-fun G273 () Bool)
(declare-fun G1 () Bool)
(declare-fun G3 () Bool)
(declare-fun G7 () Bool)
(declare-fun G8 () Bool)
(declare-fun G14 () Bool)
(declare-fun G271 () Bool)
(declare-fun G37 () Bool)
(declare-fun G40 () Bool)
(declare-fun G43 () Bool)
(declare-fun G44 () Bool)
(declare-fun G47 () Bool)
(declare-fun G48 () Bool)
(declare-fun G49 () Bool)
(declare-fun G50 () Bool)
(declare-fun G51 () Bool)
(declare-fun G52 () Bool)
(declare-fun G53 () Bool)
(declare-fun G54 () Bool)
(declare-fun G55 () Bool)
(declare-fun G56 () Bool)
(declare-fun G57 () Bool)
(declare-fun G60 () Bool)
(declare-fun G61 () Bool)
(declare-fun G62 () Bool)
(declare-fun G63 () Bool)
(declare-fun G64 () Bool)
(declare-fun G65 () Bool)
(declare-fun G66 () Bool)
(declare-fun G67 () Bool)
(declare-fun G68 () Bool)
(declare-fun G69 () Bool)
(declare-fun G72 () Bool)
(declare-fun G73 () Bool)
(declare-fun G74 () Bool)
(declare-fun G75 () Bool)
(declare-fun G76 () Bool)
(declare-fun G77 () Bool)
(declare-fun G78 () Bool)
(declare-fun G79 () Bool)
(declare-fun G80 () Bool)
(declare-fun G81 () Bool)
(declare-fun G82 () Bool)
(declare-fun G85 () Bool)
(declare-fun G86 () Bool)
(declare-fun G87 () Bool)
(declare-fun G88 () Bool)
(declare-fun G89 () Bool)
(declare-fun G90 () Bool)
(declare-fun G91 () Bool)
(declare-fun G92 () Bool)
(declare-fun G93 () Bool)
(declare-fun G94 () Bool)
(declare-fun G95 () Bool)
(declare-fun G96 () Bool)
(declare-fun G99 () Bool)
(declare-fun G100 () Bool)
(declare-fun G102 () Bool)
(declare-fun G103 () Bool)
(declare-fun G105 () Bool)
(declare-fun G106 () Bool)
(declare-fun G108 () Bool)
(declare-fun G111 () Bool)
(declare-fun G112 () Bool)
(declare-fun G114 () Bool)
(declare-fun G115 () Bool)
(declare-fun G117 () Bool)
(assert (let ((.def_0 (not G108))) (let ((.def_1 (and G69 G120 G57 G108))) (let ((.def_2 (and G44 G96 G82 G132))) (let ((.def_3 (and .def_2 .def_1))) (let ((.def_4 (not .def_3))) (let ((.def_5 (not G180))) (let ((.def_6 (not G543))) (let ((.def_7 (and G651 .def_6 G64))) (let ((.def_8 (and G651 G77 G543))) (let ((.def_9 (not G651))) (let ((.def_10 (and .def_9 G90 .def_6))) (let ((.def_11 (and .def_9 G52 G543))) (let ((.def_12 (or .def_11 .def_10 .def_8 .def_7))) (let ((.def_13 (not G2678))) (let ((.def_14 (and .def_13 G2067))) (let ((.def_15 (not .def_14))) (let ((.def_16 (not G2067))) (let ((.def_17 (and G2678 .def_16))) (let ((.def_18 (not .def_17))) (let ((.def_19 (and .def_18 .def_15))) (let ((.def_20 (not G2084))) (let ((.def_21 (and .def_20 G2090))) (let ((.def_22 (not .def_21))) (let ((.def_23 (not G2090))) (let ((.def_24 (and G2084 .def_23))) (let ((.def_25 (not .def_24))) (let ((.def_26 (and .def_25 .def_22))) (let ((.def_27 (not G2072))) (let ((.def_28 (and .def_27 G2078))) (let ((.def_29 (not .def_28))) (let ((.def_30 (not G2078))) (let ((.def_31 (and .def_30 G2072))) (let ((.def_32 (not .def_31))) (let ((.def_33 (and .def_32 .def_29))) (let ((.def_34 (not .def_33))) (let ((.def_35 (and .def_34 .def_26 .def_19))) (let ((.def_36 (not .def_26))) (let ((.def_37 (not .def_19))) (let ((.def_38 (and .def_34 .def_37 .def_36))) (let ((.def_39 (or .def_38 .def_35))) (let ((.def_40 (not .def_39))) (let ((.def_41 (and .def_33 .def_26 .def_37))) (let ((.def_42 (and .def_33 .def_19 .def_36))) (let ((.def_43 (or .def_42 .def_41))) (let ((.def_44 (not .def_43))) (let ((.def_45 (and .def_44 .def_40))) (let ((.def_46 (not G2100))) (let ((.def_47 (and G2096 .def_46))) (let ((.def_48 (not .def_47))) (let ((.def_49 (not G2096))) (let ((.def_50 (and G2100 .def_49))) (let ((.def_51 (not .def_50))) (let ((.def_52 (and .def_51 .def_48))) (let ((.def_53 (not .def_52))) (let ((.def_54 (and .def_53 .def_45))) (let ((.def_55 (not .def_54))) (let ((.def_56 (not .def_45))) (let ((.def_57 (and .def_56 .def_52))) (let ((.def_58 (not .def_57))) (let ((.def_59 (and .def_58 .def_55))) (let ((.def_60 (not .def_59))) (let ((.def_61 (and G7 G661))) (let ((.def_62 (and .def_61 G567))) (let ((.def_63 (not .def_62))) (let ((.def_64 (and G651 G543 G75))) (let ((.def_65 (and G651 .def_6 G62))) (let ((.def_66 (and .def_6 .def_9 G88))) (let ((.def_67 (and G543 .def_9 G50))) (let ((.def_68 (or .def_67 .def_66 .def_65 .def_64))) (let ((.def_69 (not .def_68))) (let ((.def_70 (not G1956))) (let ((.def_71 (not G2105))) (let ((.def_72 (and .def_71 G102 G2104))) (let ((.def_73 (not G2104))) (let ((.def_74 (and .def_71 .def_73 G138))) (let ((.def_75 (and G114 G2105 G2104))) (let ((.def_76 (and G2105 .def_73 G126))) (let ((.def_77 (or .def_76 .def_75 .def_74 .def_72))) (let ((.def_78 (not G1384))) (let ((.def_79 (and .def_78 .def_77))) (let ((.def_80 (and G2105 G113 G2104))) (let ((.def_81 (and .def_71 .def_73 G137))) (let ((.def_82 (and .def_73 G125 G2105))) (let ((.def_83 (and .def_71 G101 G2104))) (let ((.def_84 (or .def_83 .def_82 .def_81 .def_80))) (let ((.def_85 (not .def_84))) (let ((.def_86 (and .def_85 .def_79 G40))) (let ((.def_87 (not .def_86))) (let ((.def_88 (and .def_87 .def_70))) (let ((.def_89 (and .def_86 .def_27))) (let ((.def_90 (or .def_89 .def_88))) (let ((.def_91 (not .def_90))) (let ((.def_92 (and G78 G651 G543))) (let ((.def_93 (and G651 .def_6 G65))) (let ((.def_94 (and G91 .def_9 .def_6))) (let ((.def_95 (and .def_9 G53 G543))) (let ((.def_96 (or .def_95 .def_94 .def_93 .def_92))) (let ((.def_97 (not .def_96))) (let ((.def_98 (and .def_97 .def_91))) (let ((.def_99 (not .def_98))) (let ((.def_100 (and .def_90 .def_96))) (let ((.def_101 (not .def_100))) (let ((.def_102 (and .def_101 .def_99))) (let ((.def_103 (not .def_102))) (let ((.def_104 (and .def_9 G92 .def_6))) (let ((.def_105 (and G79 G651 G543))) (let ((.def_106 (and G54 .def_9 G543))) (let ((.def_107 (and G66 G651 .def_6))) (let ((.def_108 (or .def_107 .def_106 .def_105 .def_104))) (let ((.def_109 (not .def_108))) (let ((.def_110 (not G1348))) (let ((.def_111 (and .def_87 .def_110))) (let ((.def_112 (and .def_86 .def_16))) (let ((.def_113 (or .def_112 .def_111))) (let ((.def_114 (and .def_113 .def_109))) (let ((.def_115 (and .def_114 .def_103))) (let ((.def_116 (not G1996))) (let ((.def_117 (and .def_86 .def_116))) (let ((.def_118 (not G1341))) (let ((.def_119 (and .def_118 .def_87))) (let ((.def_120 (or .def_119 .def_117))) (let ((.def_121 (and G43 .def_9 G543))) (let ((.def_122 (and G651 G68 G543))) (let ((.def_123 (and .def_9 G81 .def_6))) (let ((.def_124 (and G651 G56 .def_6))) (let ((.def_125 (or .def_124 .def_123 .def_122 .def_121))) (let ((.def_126 (not .def_125))) (let ((.def_127 (and .def_126 .def_120))) (let ((.def_128 (and .def_108 .def_113))) (let ((.def_129 (not .def_128))) (let ((.def_130 (not .def_113))) (let ((.def_131 (and .def_109 .def_130))) (let ((.def_132 (not .def_131))) (let ((.def_133 (and .def_132 .def_129))) (let ((.def_134 (not .def_133))) (let ((.def_135 (and .def_134 .def_103 .def_127))) (let ((.def_136 (and .def_97 .def_90))) (let ((.def_137 (or .def_136 .def_135 .def_115))) (let ((.def_138 (and G651 G76 G543))) (let ((.def_139 (and G651 G63 .def_6))) (let ((.def_140 (and G51 G543 .def_9))) (let ((.def_141 (and .def_6 G89 .def_9))) (let ((.def_142 (or .def_141 .def_140 .def_139 .def_138))) (let ((.def_143 (and .def_87 .def_142))) (let ((.def_144 (and .def_86 .def_142))) (let ((.def_145 (or .def_144 .def_143))) (let ((.def_146 (and .def_145 G8))) (let ((.def_147 (not .def_146))) (let ((.def_148 (and .def_86 .def_20))) (let ((.def_149 (not G1966))) (let ((.def_150 (and .def_87 .def_149))) (let ((.def_151 (or .def_150 .def_148))) (let ((.def_152 (and .def_151 G8))) (let ((.def_153 (not .def_152))) (let ((.def_154 (and .def_153 .def_147))) (let ((.def_155 (not .def_154))) (let ((.def_156 (and .def_152 .def_146))) (let ((.def_157 (not .def_156))) (let ((.def_158 (and .def_157 .def_155))) (let ((.def_159 (not .def_158))) (let ((.def_160 (not .def_12))) (let ((.def_161 (and .def_86 .def_30))) (let ((.def_162 (not G1961))) (let ((.def_163 (and .def_162 .def_87))) (let ((.def_164 (or .def_163 .def_161))) (let ((.def_165 (not .def_164))) (let ((.def_166 (and .def_165 .def_160))) (let ((.def_167 (not .def_166))) (let ((.def_168 (and .def_12 .def_164))) (let ((.def_169 (not .def_168))) (let ((.def_170 (and .def_169 .def_167))) (let ((.def_171 (not .def_170))) (let ((.def_172 (not G1971))) (let ((.def_173 (and .def_87 .def_172))) (let ((.def_174 (and .def_86 .def_23))) (let ((.def_175 (or .def_174 .def_173))) (let ((.def_176 (and .def_175 G8))) (let ((.def_177 (and .def_68 .def_86))) (let ((.def_178 (and .def_68 .def_87))) (let ((.def_179 (or .def_178 .def_177))) (let ((.def_180 (and .def_179 G8))) (let ((.def_181 (and .def_180 .def_176))) (let ((.def_182 (not .def_181))) (let ((.def_183 (not .def_180))) (let ((.def_184 (not .def_176))) (let ((.def_185 (and .def_184 .def_183))) (let ((.def_186 (not .def_185))) (let ((.def_187 (and .def_186 .def_182))) (let ((.def_188 (not .def_187))) (let ((.def_189 (and G86 .def_6 .def_9))) (let ((.def_190 (and G651 .def_6 G61))) (let ((.def_191 (and G48 G543 .def_9))) (let ((.def_192 (and G73 G651 G543))) (let ((.def_193 (or .def_192 .def_191 .def_190 .def_189))) (let ((.def_194 (and .def_193 .def_87))) (let ((.def_195 (and .def_194 G8))) (let ((.def_196 (not G1981))) (let ((.def_197 (and .def_87 .def_196))) (let ((.def_198 (and G8 .def_197))) (let ((.def_199 (and .def_198 .def_195))) (let ((.def_200 (not .def_199))) (let ((.def_201 (not .def_195))) (let ((.def_202 (not .def_198))) (let ((.def_203 (and .def_202 .def_201))) (let ((.def_204 (not .def_203))) (let ((.def_205 (and .def_204 .def_200))) (let ((.def_206 (not .def_205))) (let ((.def_207 (not G1976))) (let ((.def_208 (and .def_87 .def_207))) (let ((.def_209 (and G8 .def_208))) (let ((.def_210 (not .def_209))) (let ((.def_211 (and G74 G651 G543))) (let ((.def_212 (and G49 G543 .def_9))) (let ((.def_213 (and .def_6 .def_9 G87))) (let ((.def_214 (and G651 .def_6))) (let ((.def_215 (or .def_214 .def_213 .def_212 .def_211))) (let ((.def_216 (and .def_215 .def_87))) (let ((.def_217 (and .def_216 G8))) (let ((.def_218 (not .def_217))) (let ((.def_219 (and .def_218 .def_210))) (let ((.def_220 (not .def_219))) (let ((.def_221 (and .def_217 .def_209))) (let ((.def_222 (not .def_221))) (let ((.def_223 (and .def_222 .def_220))) (let ((.def_224 (not .def_223))) (let ((.def_225 (and .def_224 .def_206 .def_188 .def_171 .def_159))) (let ((.def_226 (and .def_225 .def_137))) (let ((.def_227 (and .def_152 .def_147))) (let ((.def_228 (and .def_188 .def_206 .def_227 .def_224))) (let ((.def_229 (and .def_176 .def_183))) (let ((.def_230 (and .def_206 .def_229 .def_224))) (let ((.def_231 (and .def_198 .def_201))) (let ((.def_232 (and .def_209 .def_218))) (let ((.def_233 (and .def_206 .def_232))) (let ((.def_234 (and .def_160 .def_164))) (let ((.def_235 (and .def_224 .def_206 .def_188 .def_159 .def_234))) (let ((.def_236 (or .def_235 .def_233 .def_231 .def_230 .def_228))) (let ((.def_237 (or .def_236 .def_226))) (let ((.def_238 (not .def_79))) (let ((.def_239 (and .def_238 .def_85 G40))) (let ((.def_240 (not G1986))) (let ((.def_241 (and .def_240 .def_87))) (let ((.def_242 (and .def_241 .def_239))) (let ((.def_243 (not .def_242))) (let ((.def_244 (and G72 G651 G543))) (let ((.def_245 (and G543 G47 .def_9))) (let ((.def_246 (and .def_6 G85 .def_9))) (let ((.def_247 (and G651 .def_6 G60))) (let ((.def_248 (or .def_247 .def_246 .def_245 .def_244))) (let ((.def_249 (and .def_248 .def_87))) (let ((.def_250 (and .def_249 .def_239))) (let ((.def_251 (not .def_250))) (let ((.def_252 (and .def_251 .def_243))) (let ((.def_253 (not .def_252))) (let ((.def_254 (and .def_242 .def_250))) (let ((.def_255 (not .def_254))) (let ((.def_256 (and .def_255 .def_253))) (let ((.def_257 (not .def_256))) (let ((.def_258 (and G2105 .def_73 G129))) (let ((.def_259 (and G105 G2104 .def_71))) (let ((.def_260 (and G141 .def_73 .def_71))) (let ((.def_261 (and G117 G2105 G2104))) (let ((.def_262 (or .def_261 .def_260 .def_259 .def_258))) (let ((.def_263 (and .def_262 .def_87))) (let ((.def_264 (and .def_263 .def_239))) (let ((.def_265 (not .def_264))) (let ((.def_266 (and .def_87 .def_116))) (let ((.def_267 (and .def_266 .def_239))) (let ((.def_268 (not .def_267))) (let ((.def_269 (and .def_268 .def_265))) (let ((.def_270 (not .def_269))) (let ((.def_271 (and .def_264 .def_267))) (let ((.def_272 (not .def_271))) (let ((.def_273 (and .def_272 .def_270))) (let ((.def_274 (not .def_273))) (let ((.def_275 (not G1991))) (let ((.def_276 (and .def_87 .def_275))) (let ((.def_277 (and .def_239 .def_276))) (let ((.def_278 (and G131 .def_73 .def_71))) (let ((.def_279 (and G2105 G107 G2104))) (let ((.def_280 (and G2105 G119 .def_73))) (let ((.def_281 (and G2104 .def_71 G95))) (let ((.def_282 (or .def_281 .def_280 .def_279 .def_278))) (let ((.def_283 (and .def_282 .def_87))) (let ((.def_284 (and .def_239 .def_283))) (let ((.def_285 (and .def_284 .def_277))) (let ((.def_286 (not .def_285))) (let ((.def_287 (not .def_277))) (let ((.def_288 (not .def_284))) (let ((.def_289 (and .def_288 .def_287))) (let ((.def_290 (not .def_289))) (let ((.def_291 (and .def_290 .def_286))) (let ((.def_292 (not .def_291))) (let ((.def_293 (and .def_87 .def_16))) (let ((.def_294 (and .def_239 .def_293))) (let ((.def_295 (not .def_294))) (let ((.def_296 (and G128 G2105 .def_73))) (let ((.def_297 (and G2104 .def_71 G104))) (let ((.def_298 (and G2105 G2104 G116))) (let ((.def_299 (and G140 .def_71 .def_73))) (let ((.def_300 (or .def_299 .def_298 .def_297 .def_296))) (let ((.def_301 (and .def_87 .def_300))) (let ((.def_302 (and .def_301 .def_239))) (let ((.def_303 (not .def_302))) (let ((.def_304 (and .def_303 .def_295))) (let ((.def_305 (not .def_304))) (let ((.def_306 (and .def_294 .def_302))) (let ((.def_307 (not .def_306))) (let ((.def_308 (and .def_307 .def_305))) (let ((.def_309 (not .def_308))) (let ((.def_310 (and .def_309 .def_292 .def_274 .def_257))) (let ((.def_311 (not .def_310))) (let ((.def_312 (and .def_267 .def_265))) (let ((.def_313 (and .def_312 .def_309))) (let ((.def_314 (and .def_277 .def_288))) (let ((.def_315 (and .def_309 .def_274 .def_314))) (let ((.def_316 (and .def_251 .def_242))) (let ((.def_317 (and .def_316 .def_274 .def_292 .def_309))) (let ((.def_318 (and .def_294 .def_303))) (let ((.def_319 (or .def_318 .def_317 .def_315 .def_313))) (let ((.def_320 (not .def_319))) (let ((.def_321 (and .def_320 .def_311))) (let ((.def_322 (not .def_321))) (let ((.def_323 (and .def_322 .def_237))) (let ((.def_324 (not .def_237))) (let ((.def_325 (and .def_324 .def_319))) (let ((.def_326 (or .def_325 .def_323))) (let ((.def_327 (not .def_326))) (let ((.def_328 (not G242))) (let ((.def_329 (and G94 G452))) (let ((.def_330 (and .def_69 .def_215))) (let ((.def_331 (not .def_330))) (let ((.def_332 (not .def_215))) (let ((.def_333 (and .def_68 .def_332))) (let ((.def_334 (not .def_333))) (let ((.def_335 (and .def_334 .def_331))) (let ((.def_336 (not .def_335))) (let ((.def_337 (not .def_193))) (let ((.def_338 (and .def_248 .def_337))) (let ((.def_339 (not .def_338))) (let ((.def_340 (not .def_248))) (let ((.def_341 (and .def_193 .def_340))) (let ((.def_342 (not .def_341))) (let ((.def_343 (and .def_342 .def_339))) (let ((.def_344 (and .def_343 .def_336))) (let ((.def_345 (not .def_344))) (let ((.def_346 (not .def_343))) (let ((.def_347 (and .def_346 .def_335))) (let ((.def_348 (not .def_347))) (let ((.def_349 (and .def_348 .def_345))) (let ((.def_350 (and .def_96 .def_109))) (let ((.def_351 (not .def_350))) (let ((.def_352 (and .def_108 .def_97))) (let ((.def_353 (not .def_352))) (let ((.def_354 (and .def_353 .def_351))) (let ((.def_355 (not .def_354))) (let ((.def_356 (not G559))) (let ((.def_357 (and .def_356 .def_109))) (let ((.def_358 (and G651 G67 .def_6))) (let ((.def_359 (and .def_9 G93 .def_6))) (let ((.def_360 (and G55 .def_9 G543))) (let ((.def_361 (and G651 G80 G543))) (let ((.def_362 (or .def_361 .def_360 .def_359 .def_358))) (let ((.def_363 (and .def_362 .def_126))) (let ((.def_364 (not .def_363))) (let ((.def_365 (not .def_362))) (let ((.def_366 (and .def_125 .def_365))) (let ((.def_367 (not .def_366))) (let ((.def_368 (and .def_367 .def_364))) (let ((.def_369 (and .def_368 .def_357 .def_355))) (let ((.def_370 (not .def_357))) (let ((.def_371 (and .def_368 .def_370 .def_354))) (let ((.def_372 (or .def_371 .def_369))) (let ((.def_373 (not .def_372))) (let ((.def_374 (not .def_368))) (let ((.def_375 (and .def_370 .def_374 .def_355))) (let ((.def_376 (and .def_354 .def_357 .def_374))) (let ((.def_377 (or .def_376 .def_375))) (let ((.def_378 (not .def_377))) (let ((.def_379 (and .def_378 .def_373))) (let ((.def_380 (not .def_379))) (let ((.def_381 (and .def_380 .def_349))) (let ((.def_382 (not .def_381))) (let ((.def_383 (not .def_349))) (let ((.def_384 (and .def_379 .def_383))) (let ((.def_385 (not .def_384))) (let ((.def_386 (and .def_385 .def_382))) (let ((.def_387 (not .def_386))) (let ((.def_388 (and G868 .def_387))) (let ((.def_389 (not G868))) (let ((.def_390 (and .def_389 .def_362))) (let ((.def_391 (or .def_390 .def_388))) (let ((.def_392 (not .def_391))) (let ((.def_393 (not G169))) (let ((.def_394 (not G204))) (let ((.def_395 (not G203))) (let ((.def_396 (not .def_77))) (let ((.def_397 (and .def_389 .def_96))) (let ((.def_398 (and G868 .def_142))) (let ((.def_399 (or .def_398 .def_397))) (let ((.def_400 (not .def_399))) (let ((.def_401 (and .def_196 G1986))) (let ((.def_402 (not .def_401))) (let ((.def_403 (and .def_240 G1981))) (let ((.def_404 (not .def_403))) (let ((.def_405 (and .def_404 .def_402))) (let ((.def_406 (and G1996 .def_275))) (let ((.def_407 (not .def_406))) (let ((.def_408 (and .def_116 G1991))) (let ((.def_409 (not .def_408))) (let ((.def_410 (and .def_409 .def_407))) (let ((.def_411 (not .def_410))) (let ((.def_412 (and .def_411 .def_405))) (let ((.def_413 (not .def_412))) (let ((.def_414 (not .def_405))) (let ((.def_415 (and .def_410 .def_414))) (let ((.def_416 (not .def_415))) (let ((.def_417 (and .def_416 .def_413))) (let ((.def_418 (and G2474 .def_70))) (let ((.def_419 (not .def_418))) (let ((.def_420 (not G2474))) (let ((.def_421 (and G1956 .def_420))) (let ((.def_422 (not .def_421))) (let ((.def_423 (and .def_422 .def_419))) (let ((.def_424 (not .def_423))) (let ((.def_425 (and .def_162 G1966))) (let ((.def_426 (not .def_425))) (let ((.def_427 (and G1961 .def_149))) (let ((.def_428 (not .def_427))) (let ((.def_429 (and .def_428 .def_426))) (let ((.def_430 (and .def_172 G1976))) (let ((.def_431 (not .def_430))) (let ((.def_432 (and .def_207 G1971))) (let ((.def_433 (not .def_432))) (let ((.def_434 (and .def_433 .def_431))) (let ((.def_435 (and .def_434 .def_429 .def_424))) (let ((.def_436 (not .def_434))) (let ((.def_437 (and .def_436 .def_423 .def_429))) (let ((.def_438 (or .def_437 .def_435))) (let ((.def_439 (not .def_438))) (let ((.def_440 (not .def_429))) (let ((.def_441 (and .def_440 .def_436 .def_424))) (let ((.def_442 (and .def_434 .def_440 .def_423))) (let ((.def_443 (or .def_442 .def_441))) (let ((.def_444 (not .def_443))) (let ((.def_445 (and .def_444 .def_439))) (let ((.def_446 (not .def_445))) (let ((.def_447 (and .def_446 .def_417))) (let ((.def_448 (not .def_447))) (let ((.def_449 (not .def_417))) (let ((.def_450 (and .def_445 .def_449))) (let ((.def_451 (not .def_450))) (let ((.def_452 (and .def_451 .def_448))) (let ((.def_453 (not .def_61))) (let ((.def_454 (and .def_332 .def_68))) (let ((.def_455 (not .def_454))) (let ((.def_456 (and .def_455 .def_331))) (let ((.def_457 (not .def_456))) (let ((.def_458 (and .def_340 .def_193))) (let ((.def_459 (not .def_458))) (let ((.def_460 (and .def_459 .def_339))) (let ((.def_461 (and .def_460 .def_457))) (let ((.def_462 (not .def_461))) (let ((.def_463 (not .def_460))) (let ((.def_464 (and .def_456 .def_463))) (let ((.def_465 (not .def_464))) (let ((.def_466 (and .def_465 .def_462))) (let ((.def_467 (not .def_466))) (let ((.def_468 (and .def_142 .def_160))) (let ((.def_469 (not .def_468))) (let ((.def_470 (not .def_142))) (let ((.def_471 (and .def_470 .def_12))) (let ((.def_472 (not .def_471))) (let ((.def_473 (and .def_472 .def_469))) (let ((.def_474 (not .def_473))) (let ((.def_475 (and .def_97 .def_108))) (let ((.def_476 (not .def_475))) (let ((.def_477 (and .def_109 .def_96))) (let ((.def_478 (not .def_477))) (let ((.def_479 (and .def_478 .def_476))) (let ((.def_480 (and .def_479 .def_474 .def_368))) (let ((.def_481 (and .def_374 .def_473 .def_479))) (let ((.def_482 (or .def_481 .def_480))) (let ((.def_483 (not .def_482))) (let ((.def_484 (not .def_479))) (let ((.def_485 (and .def_473 .def_484 .def_368))) (let ((.def_486 (and .def_374 .def_484 .def_474))) (let ((.def_487 (or .def_486 .def_485))) (let ((.def_488 (not .def_487))) (let ((.def_489 (and .def_488 .def_483))) (let ((.def_490 (and .def_489 .def_467))) (let ((.def_491 (not .def_490))) (let ((.def_492 (not .def_489))) (let ((.def_493 (and .def_492 .def_466))) (let ((.def_494 (not .def_493))) (let ((.def_495 (and .def_494 .def_491))) (let ((.def_496 (not G37))) (let ((.def_497 (and .def_496 .def_495))) (let ((.def_498 (not G184))) (let ((.def_499 (not G202))) (let ((.def_500 (and .def_61 G2106))) (let ((.def_501 (not .def_500))) (let ((.def_502 (not G264))) (let ((.def_503 (not G82))) (let ((.def_504 (not G201))) (let ((.def_505 (not G250))) (let ((.def_506 (and G2078 G2090 G2084 G2072))) (let ((.def_507 (not .def_506))) (let ((.def_508 (not G57))) (let ((.def_509 (not G1083))) (let ((.def_510 (not .def_452))) (let ((.def_511 (not G2451))) (let ((.def_512 (and G2454 .def_511))) (let ((.def_513 (not .def_512))) (let ((.def_514 (not G2454))) (let ((.def_515 (and .def_514 G2451))) (let ((.def_516 (not .def_515))) (let ((.def_517 (and .def_516 .def_513))) (let ((.def_518 (and G1348 .def_118))) (let ((.def_519 (not .def_518))) (let ((.def_520 (and G1341 .def_110))) (let ((.def_521 (not .def_520))) (let ((.def_522 (and .def_521 .def_519))) (let ((.def_523 (not .def_522))) (let ((.def_524 (and .def_523 .def_517))) (let ((.def_525 (not .def_524))) (let ((.def_526 (not .def_517))) (let ((.def_527 (and .def_526 .def_522))) (let ((.def_528 (not .def_527))) (let ((.def_529 (and .def_528 .def_525))) (let ((.def_530 (not G2427))) (let ((.def_531 (and G2430 .def_530))) (let ((.def_532 (not .def_531))) (let ((.def_533 (not G2430))) (let ((.def_534 (and .def_533 G2427))) (let ((.def_535 (not .def_534))) (let ((.def_536 (and .def_535 .def_532))) (let ((.def_537 (not G2446))) (let ((.def_538 (and .def_537 G2443))) (let ((.def_539 (not .def_538))) (let ((.def_540 (not G2443))) (let ((.def_541 (and G2446 .def_540))) (let ((.def_542 (not .def_541))) (let ((.def_543 (and .def_542 .def_539))) (let ((.def_544 (not .def_543))) (let ((.def_545 (not G2438))) (let ((.def_546 (and .def_545 G2435))) (let ((.def_547 (not .def_546))) (let ((.def_548 (not G2435))) (let ((.def_549 (and .def_548 G2438))) (let ((.def_550 (not .def_549))) (let ((.def_551 (and .def_550 .def_547))) (let ((.def_552 (and .def_551 .def_544 .def_536))) (let ((.def_553 (not .def_536))) (let ((.def_554 (and .def_553 .def_551 .def_543))) (let ((.def_555 (or .def_554 .def_552))) (let ((.def_556 (not .def_555))) (let ((.def_557 (not .def_551))) (let ((.def_558 (and .def_557 .def_543 .def_536))) (let ((.def_559 (and .def_557 .def_553 .def_544))) (let ((.def_560 (or .def_559 .def_558))) (let ((.def_561 (not .def_560))) (let ((.def_562 (and .def_561 .def_556))) (let ((.def_563 (not .def_562))) (let ((.def_564 (and .def_563 .def_529))) (let ((.def_565 (not .def_564))) (let ((.def_566 (not .def_529))) (let ((.def_567 (and .def_562 .def_566))) (let ((.def_568 (not .def_567))) (let ((.def_569 (and .def_568 .def_565))) (let ((.def_570 (and .def_569 G14))) (let ((.def_571 (not .def_570))) (let ((.def_572 (and .def_87 .def_240))) (let ((.def_573 (and .def_239 .def_572))) (let ((.def_574 (and .def_250 .def_573))) (let ((.def_575 (not .def_574))) (let ((.def_576 (not .def_573))) (let ((.def_577 (and .def_576 .def_251))) (let ((.def_578 (not .def_577))) (let ((.def_579 (and .def_578 .def_575))) (let ((.def_580 (not .def_579))) (let ((.def_581 (and .def_300 .def_87))) (let ((.def_582 (and .def_239 .def_581))) (let ((.def_583 (not .def_582))) (let ((.def_584 (and .def_583 .def_295))) (let ((.def_585 (not .def_584))) (let ((.def_586 (and .def_582 .def_294))) (let ((.def_587 (not .def_586))) (let ((.def_588 (and .def_587 .def_585))) (let ((.def_589 (not .def_588))) (let ((.def_590 (and .def_239 .def_263))) (let ((.def_591 (and .def_590 .def_267))) (let ((.def_592 (not .def_591))) (let ((.def_593 (not .def_590))) (let ((.def_594 (and .def_593 .def_268))) (let ((.def_595 (not .def_594))) (let ((.def_596 (and .def_595 .def_592))) (let ((.def_597 (not .def_596))) (let ((.def_598 (and .def_277 .def_284))) (let ((.def_599 (not .def_598))) (let ((.def_600 (and .def_287 .def_288))) (let ((.def_601 (not .def_600))) (let ((.def_602 (and .def_601 .def_599))) (let ((.def_603 (not .def_602))) (let ((.def_604 (and .def_603 .def_597 .def_589 .def_580))) (let ((.def_605 (not .def_604))) (let ((.def_606 (and .def_573 .def_251))) (let ((.def_607 (and .def_603 .def_597 .def_589 .def_606))) (let ((.def_608 (and .def_267 .def_593))) (let ((.def_609 (and .def_608 .def_589))) (let ((.def_610 (and .def_597 .def_589 .def_314))) (let ((.def_611 (and .def_583 .def_294))) (let ((.def_612 (or .def_611 .def_610 .def_609 .def_607))) (let ((.def_613 (not .def_612))) (let ((.def_614 (and .def_613 .def_605))) (let ((.def_615 (not .def_614))) (let ((.def_616 (and .def_90 .def_97))) (let ((.def_617 (and .def_96 .def_90))) (let ((.def_618 (not .def_617))) (let ((.def_619 (and .def_618 .def_99))) (let ((.def_620 (not .def_619))) (let ((.def_621 (and .def_114 .def_620))) (let ((.def_622 (and .def_129 .def_132))) (let ((.def_623 (not .def_622))) (let ((.def_624 (and .def_623 .def_127 .def_620))) (let ((.def_625 (or .def_624 .def_621 .def_616))) (let ((.def_626 (and .def_196 .def_87))) (let ((.def_627 (and G8 .def_626))) (let ((.def_628 (not .def_627))) (let ((.def_629 (and .def_201 .def_628))) (let ((.def_630 (not .def_629))) (let ((.def_631 (and .def_627 .def_195))) (let ((.def_632 (not .def_631))) (let ((.def_633 (and .def_632 .def_630))) (let ((.def_634 (not .def_633))) (let ((.def_635 (and .def_149 .def_87))) (let ((.def_636 (or .def_148 .def_635))) (let ((.def_637 (and .def_636 G8))) (let ((.def_638 (and .def_637 .def_146))) (let ((.def_639 (not .def_638))) (let ((.def_640 (not .def_637))) (let ((.def_641 (and .def_147 .def_640))) (let ((.def_642 (not .def_641))) (let ((.def_643 (and .def_642 .def_639))) (let ((.def_644 (not .def_643))) (let ((.def_645 (and .def_208 G8))) (let ((.def_646 (and .def_645 .def_217))) (let ((.def_647 (not .def_646))) (let ((.def_648 (not .def_645))) (let ((.def_649 (and .def_648 .def_218))) (let ((.def_650 (not .def_649))) (let ((.def_651 (and .def_650 .def_647))) (let ((.def_652 (not .def_651))) (let ((.def_653 (and .def_176 .def_180))) (let ((.def_654 (not .def_653))) (let ((.def_655 (and .def_186 .def_654))) (let ((.def_656 (not .def_655))) (let ((.def_657 (or .def_161 .def_163))) (let ((.def_658 (not .def_657))) (let ((.def_659 (and .def_160 .def_658))) (let ((.def_660 (not .def_659))) (let ((.def_661 (and .def_12 .def_657))) (let ((.def_662 (not .def_661))) (let ((.def_663 (and .def_662 .def_660))) (let ((.def_664 (not .def_663))) (let ((.def_665 (and .def_664 .def_656 .def_652 .def_644 .def_634))) (let ((.def_666 (and .def_665 .def_625))) (let ((.def_667 (and .def_147 .def_637))) (let ((.def_668 (and .def_634 .def_656 .def_652 .def_667))) (let ((.def_669 (and .def_657 .def_160))) (let ((.def_670 (and .def_656 .def_652 .def_644 .def_669 .def_634))) (let ((.def_671 (and .def_218 .def_645))) (let ((.def_672 (and .def_634 .def_671))) (let ((.def_673 (and .def_627 .def_201))) (let ((.def_674 (and .def_634 .def_652 .def_229))) (let ((.def_675 (or .def_674 .def_673 .def_672 .def_670 .def_668))) (let ((.def_676 (or .def_675 .def_666))) (let ((.def_677 (and .def_676 .def_615))) (let ((.def_678 (not .def_676))) (let ((.def_679 (and .def_612 .def_678))) (let ((.def_680 (or .def_679 .def_677))) (let ((.def_681 (and .def_680 .def_326))) (let ((.def_682 (not .def_681))) (let ((.def_683 (and .def_682 .def_326))) (let ((.def_684 (and .def_682 .def_680))) (let ((.def_685 (or .def_684 .def_683))) (let ((.def_686 (not .def_685))) (let ((.def_687 (and .def_686 .def_685))) (let ((.def_688 (or .def_686 .def_687))) (let ((.def_689 (and .def_688 .def_571 .def_510))) (let ((.def_690 (not .def_2))) (let ((.def_691 (and G2106 .def_690))) (let ((.def_692 (not .def_691))) (let ((.def_693 (not .def_1))) (let ((.def_694 (and .def_693 G567))) (let ((.def_695 (not .def_694))) (let ((.def_696 (and .def_695 .def_692))) (let ((.def_697 (and G124 .def_73 G2105))) (let ((.def_698 (and G112 G2105 G2104))) (let ((.def_699 (and .def_71 .def_73 G136))) (let ((.def_700 (and .def_71 G100 G2104))) (let ((.def_701 (or .def_700 .def_699 .def_698 .def_697))) (let ((.def_702 (not .def_701))) (let ((.def_703 (and .def_84 .def_702))) (let ((.def_704 (not .def_703))) (let ((.def_705 (and .def_85 .def_701))) (let ((.def_706 (not .def_705))) (let ((.def_707 (and .def_706 .def_704))) (let ((.def_708 (and .def_71 G99 G2104))) (let ((.def_709 (and G123 .def_73 G2105))) (let ((.def_710 (and G111 G2105 G2104))) (let ((.def_711 (and .def_71 .def_73 G135))) (let ((.def_712 (or .def_711 .def_710 .def_709 .def_708))) (let ((.def_713 (not .def_712))) (let ((.def_714 (and .def_71 .def_73))) (let ((.def_715 (and G2105 G2104))) (let ((.def_716 (and .def_73 G2105))) (let ((.def_717 (and .def_71 G2104))) (let ((.def_718 (or .def_717 .def_716 .def_715 .def_714))) (let ((.def_719 (and .def_718 .def_713))) (let ((.def_720 (not .def_719))) (let ((.def_721 (not .def_718))) (let ((.def_722 (and .def_712 .def_721))) (let ((.def_723 (not .def_722))) (let ((.def_724 (and .def_723 .def_720))) (let ((.def_725 (not .def_724))) (let ((.def_726 (and .def_725 .def_707))) (let ((.def_727 (not .def_726))) (let ((.def_728 (not .def_707))) (let ((.def_729 (and .def_724 .def_728))) (let ((.def_730 (not .def_729))) (let ((.def_731 (and .def_730 .def_727))) (let ((.def_732 (not .def_731))) (let ((.def_733 (and .def_73 .def_71 G139))) (let ((.def_734 (and G2105 G127 .def_73))) (let ((.def_735 (and G2105 G2104 G115))) (let ((.def_736 (and G103 G2104 .def_71))) (let ((.def_737 (or .def_736 .def_735 .def_734 .def_733))) (let ((.def_738 (and .def_737 .def_396))) (let ((.def_739 (not .def_738))) (let ((.def_740 (not .def_737))) (let ((.def_741 (and .def_740 .def_77))) (let ((.def_742 (not .def_741))) (let ((.def_743 (and .def_742 .def_739))) (let ((.def_744 (not .def_262))) (let ((.def_745 (and .def_300 .def_744))) (let ((.def_746 (not .def_745))) (let ((.def_747 (not .def_300))) (let ((.def_748 (and .def_262 .def_747))) (let ((.def_749 (not .def_748))) (let ((.def_750 (and .def_749 .def_746))) (let ((.def_751 (not .def_750))) (let ((.def_752 (not .def_282))) (let ((.def_753 (and G2104 .def_71 G106))) (let ((.def_754 (and G142 .def_73 .def_71))) (let ((.def_755 (and G2105 G130 .def_73))) (let ((.def_756 (and G2105 G2104 G118))) (let ((.def_757 (or .def_756 .def_755 .def_754 .def_753))) (let ((.def_758 (and .def_757 .def_752))) (let ((.def_759 (not .def_758))) (let ((.def_760 (not .def_757))) (let ((.def_761 (and .def_760 .def_282))) (let ((.def_762 (not .def_761))) (let ((.def_763 (and .def_762 .def_759))) (let ((.def_764 (and .def_763 .def_751 .def_743))) (let ((.def_765 (not .def_763))) (let ((.def_766 (not .def_743))) (let ((.def_767 (and .def_766 .def_751 .def_765))) (let ((.def_768 (or .def_767 .def_764))) (let ((.def_769 (not .def_768))) (let ((.def_770 (and .def_766 .def_750 .def_763))) (let ((.def_771 (and .def_743 .def_750 .def_765))) (let ((.def_772 (or .def_771 .def_770))) (let ((.def_773 (not .def_772))) (let ((.def_774 (and .def_773 .def_769))) (let ((.def_775 (and .def_774 .def_732))) (let ((.def_776 (not .def_775))) (let ((.def_777 (not .def_774))) (let ((.def_778 (and .def_777 .def_731))) (let ((.def_779 (not .def_778))) (let ((.def_780 (and .def_779 .def_776))) (let ((.def_781 (and .def_780 .def_496))) (let ((.def_782 (not .def_781))) (let ((.def_783 (not .def_497))) (let ((.def_784 (and .def_783 .def_782 .def_60))) (let ((.def_785 (and .def_784 .def_696 .def_689))) (let ((.def_786 (not .def_785))) (let ((.def_787 (not G213))) (let ((.def_788 (and G868 .def_12))) (let ((.def_789 (and .def_389 .def_108))) (let ((.def_790 (or .def_789 .def_788))) (let ((.def_791 (not G254))) (let ((.def_792 (and .def_389 .def_125))) (let ((.def_793 (and G868 .def_370))) (let ((.def_794 (or .def_793 .def_792))) (let ((.def_795 (not .def_794))) (let ((.def_796 (not G274))) (let ((.def_797 (and G860 .def_125))) (let ((.def_798 (not G860))) (let ((.def_799 (or .def_798 .def_797))) (let ((.def_800 (not .def_799))) (let ((.def_801 (not G241))) (let ((.def_802 (and G1 G3))) (let ((.def_803 (not .def_802))) (let ((.def_804 (and .def_803 G483 G661 .def_696))) (let ((.def_805 (not G256))) (let ((.def_806 (not G244))) (let ((.def_807 (not G263))) (let ((.def_808 (not G210))) (let ((.def_809 (not G179))) (let ((.def_810 (not .def_688))) (let ((.def_811 (not G195))) (let ((.def_812 (not .def_696))) (let ((.def_813 (and .def_718 .def_46))) (let ((.def_814 (not .def_813))) (let ((.def_815 (and .def_814 .def_718))) (let ((.def_816 (and .def_814 .def_46))) (let ((.def_817 (or .def_816 .def_815))) (let ((.def_818 (not .def_817))) (let ((.def_819 (and .def_818 .def_817))) (let ((.def_820 (or .def_819 .def_818))) (let ((.def_821 (and .def_49 .def_712))) (let ((.def_822 (not .def_821))) (let ((.def_823 (and .def_822 .def_712))) (let ((.def_824 (and .def_822 .def_49))) (let ((.def_825 (or .def_824 .def_823))) (let ((.def_826 (not .def_825))) (let ((.def_827 (and .def_825 .def_826))) (let ((.def_828 (or .def_827 .def_826))) (let ((.def_829 (and .def_828 .def_820))) (let ((.def_830 (not .def_829))) (let ((.def_831 (and .def_830 .def_812 .def_790 .def_785 G196 G211 .def_811 G120 .def_810 .def_809 .def_68 .def_808 G266 .def_807 G1083 .def_392 .def_97 G267 .def_806 .def_84 G452 .def_805 .def_804 .def_142 .def_801 .def_800 .def_796 G452 .def_795 .def_791 .def_790 .def_787 G181 .def_570 G265 .def_142 .def_786 G262 G2066 .def_3 .def_509 G215 G243 .def_508 G186 .def_507 .def_505 .def_504 .def_503 .def_502 .def_501 .def_499 G214 .def_498 .def_497 G278 .def_453 .def_248 .def_452 G255 .def_400 .def_396 .def_395 G273 .def_394 .def_393 .def_392 .def_329 .def_328 .def_327 G452 .def_69 G270 .def_63 G271 .def_60 .def_12 .def_5 G192 .def_4 G246 .def_0 G212 G199))) .def_831)))))))))))))))))))))))))))))))))))))))))))))))))))))))))))))))))))))))))))))))))))))))))))))))))))))))))))))))))))))))))))))))))))))))))))))))))))))))))))))))))))))))))))))))))))))))))))))))))))))))))))))))))))))))))))))))))))))))))))))))))))))))))))))))))))))))))))))))))))))))))))))))))))))))))))))))))))))))))))))))))))))))))))))))))))))))))))))))))))))))))))))))))))))))))))))))))))))))))))))))))))))))))))))))))))))))))))))))))))))))))))))))))))))))))))))))))))))))))))))))))))))))))))))))))))))))))))))))))))))))))))))))))))))))))))))))))))))))))))))))))))))))))))))))))))))))))))))))))))))))))))))))))))))))))))))))))))))))))))))))))))))))))))))))))))))))))))))))))))))))))))))))))))))))))))))))))))))))))))))))))))))))))))))))))))))))))))))))))))))))))))))))))))))))))))))))))))))))))))))))))))))))))))))))))))))))))))))))))
(check-sat)
